80 80
80 65 1
81 43 1
99 33 1
82 30 1
96 2 1
85 44 1
18 25 1
89 37 1
79 50 1
96 8 1
50 28 1
7 6 1
71 9 1
22 32 1
96 44 1
94 37 1
7 31 1
74 19 1
99 21 1
91 29 1
78 13 1
75 17 1
76 9 1
96 33 1
94 8 1
84 27 1
96 10 1
74 49 1
83 14 1
1 99 1
89 22 1
95 26 1
71 82 1
92 32 1
36 97 1
85 65 1
86 11 1
90 27 1
100 31 1
89 66 1
99 3 1
97 33 1
83 28 1
5 85 1
86 5 1
17 2 1
74 36 1
88 3 1
81 20 1
100 32 1
72 7 1
80 38 1
27 46 1
97 23 1
80 39 1
22 90 1
95 34 1
66 26 1
95 32 1
89 45 1
79 33 1
79 41 1
83 38 1
71 16 1
72 45 1
100 18 1
21 5 1
96 48 1
73 17 1
91 55 1
85 33 1
41 95 1
73 51 1
94 55 1
98 24 1
100 48 1
99 48 1
9 78 1
84 26 1
80 15 1
100 100 
100 100 
100 100 
100 100 
100 100 
100 100 
100 100 
100 100 
100 100 
100 100 
100 100 
100 100 
100 100 
100 100 
100 100 
100 100 
100 100 
100 100 
100 100 
100 100 
100 100 
100 100 
100 100 
100 100 
100 100 
100 100 
100 100 
100 100 
100 100 
100 100 
100 100 
100 100 
100 100 
100 100 
100 100 
100 100 
100 100 
100 100 
100 100 
100 100 
100 100 
100 100 
100 100 
100 100 
100 100 
100 100 
100 100 
100 100 
100 100 
100 100 
100 100 
100 100 
100 100 
100 100 
100 100 
100 100 
100 100 
100 100 
100 100 
100 100 
100 100 
100 100 
100 100 
100 100 
100 100 
100 100 
100 100 
100 100 
100 100 
100 100 
100 100 
100 100 
100 100 
100 100 
100 100 
100 100 
100 100 
100 100 
100 100 
100 100 
